c A SAT instance generated from a 3-CNF formula that had 18 clauses and 9 variables
p cnf 9 18
7 -5 2 0
-4 -2 1 0
-7 -6 -9 0
-3 -7 -5 0
9 -8 7 0
-9 -3 -8 0
7 1 5 0
-9 -1 -5 0
2 -9 3 0
2 -8 7 0
-6 -7 -3 0
-2 -3 -5 0
8 -1 -4 0
-9 -1 8 0
5 -7 2 0
2 -4 -5 0
-8 3 1 0
1 5 2 0
